p cnf 213 565
213 0 
-175 -44 0 
175 44 0 
-19 196 181 0 
19 -196 0 
19 -181 0 
-152 167 184 0 
152 -167 0 
152 -184 0 
-137 70 0 
-137 89 0 
-70 -89 137 0 
-211 187 14 0 
211 -187 0 
211 -14 0 
-166 -17 0 
166 17 0 
-188 -123 0 
188 123 0 
-41 115 0 
-41 124 0 
-115 -124 41 0 
-184 -95 0 
184 95 0 
-162 113 190 0 
162 -113 0 
162 -190 0 
-127 -113 0 
127 113 0 
-39 38 0 
-39 180 0 
-38 -180 39 0 
-11 87 0 
-11 178 0 
-87 -178 11 0 
-8 57 208 0 
8 -57 0 
8 -208 0 
-70 45 60 0 
70 -45 0 
70 -60 0 
-119 -148 0 
119 148 0 
-6 45 60 0 
6 -45 0 
6 -60 0 
-24 1 0 
-24 164 0 
-1 -164 24 0 
-31 186 0 
-31 111 0 
-186 -111 31 0 
-212 57 153 0 
212 -57 0 
212 -153 0 
-60 -192 0 
60 192 0 
-181 128 11 0 
181 -128 0 
181 -11 0 
-169 41 208 0 
169 -41 0 
169 -208 0 
-80 198 0 
-80 75 0 
-198 -75 80 0 
-168 164 0 
-168 19 0 
-164 -19 168 0 
-45 -40 0 
45 40 0 
-54 23 0 
-54 208 0 
-23 -208 54 0 
-22 3 0 
-22 208 0 
-3 -208 22 0 
-22 -14 0 
22 14 0 
-84 73 49 0 
84 -73 0 
84 -49 0 
-86 -126 0 
86 126 0 
-128 87 0 
-128 208 0 
-87 -208 128 0 
-105 173 44 0 
105 -173 0 
105 -44 0 
-178 43 206 0 
178 -43 0 
178 -206 0 
-195 5 0 
-195 125 0 
-5 -125 195 0 
-76 80 48 0 
76 -80 0 
76 -48 0 
-125 10 133 0 
125 -10 0 
125 -133 0 
-180 71 55 0 
180 -71 0 
180 -55 0 
-79 -10 0 
79 10 0 
-184 90 50 0 
184 -90 0 
184 -50 0 
-130 25 0 
-130 209 0 
-25 -209 130 0 
-88 71 86 0 
88 -71 0 
88 -86 0 
-114 127 29 0 
114 -127 0 
114 -29 0 
-177 6 0 
-177 7 0 
-6 -7 177 0 
-31 -159 0 
31 159 0 
-208 163 0 
-208 147 0 
-163 -147 208 0 
-154 117 107 0 
154 -117 0 
154 -107 0 
-143 -16 0 
143 16 0 
-204 155 47 0 
204 -155 0 
204 -47 0 
-166 65 0 
-166 105 0 
-65 -105 166 0 
-91 -132 0 
91 132 0 
-164 -150 0 
164 150 0 
-115 188 208 0 
115 -188 0 
115 -208 0 
-108 -94 0 
108 94 0 
-203 60 208 0 
203 -60 0 
203 -208 0 
-41 -117 0 
41 117 0 
-111 145 193 0 
111 -145 0 
111 -193 0 
-60 2 0 
-60 164 0 
-2 -164 60 0 
-21 -197 0 
21 197 0 
-188 -23 0 
188 23 0 
-50 20 157 0 
50 -20 0 
50 -157 0 
-42 -207 0 
42 207 0 
-79 129 0 
-79 112 0 
-129 -112 79 0 
-140 33 109 0 
140 -33 0 
140 -109 0 
-178 -133 0 
178 133 0 
-134 -33 0 
134 33 0 
-164 -62 0 
164 62 0 
-139 -170 0 
139 170 0 
-135 15 59 0 
135 -15 0 
135 -59 0 
-137 -51 0 
137 51 0 
-71 -34 0 
71 34 0 
-5 79 178 0 
5 -79 0 
5 -178 0 
-153 3 0 
-153 208 0 
-3 -208 153 0 
-13 42 164 0 
13 -42 0 
13 -164 0 
-66 171 0 
-66 184 0 
-171 -184 66 0 
-91 161 0 
-91 97 0 
-161 -97 91 0 
-106 56 195 0 
106 -56 0 
106 -195 0 
-119 -52 0 
119 52 0 
-161 108 121 0 
161 -108 0 
161 -121 0 
-116 76 0 
-116 30 0 
-76 -30 116 0 
-56 169 0 
-56 154 0 
-169 -154 56 0 
-158 86 55 0 
158 -86 0 
158 -55 0 
-28 121 21 0 
28 -121 0 
28 -21 0 
-48 -156 0 
48 156 0 
-142 23 0 
-142 208 0 
-23 -208 142 0 
-191 143 208 0 
191 -143 0 
191 -208 0 
-49 152 0 
-49 200 0 
-152 -200 49 0 
-213 4 0 
-213 205 0 
-4 -205 213 0 
-131 -173 0 
131 173 0 
-149 148 0 
-149 164 0 
-148 -164 149 0 
-26 106 72 0 
26 -106 0 
26 -72 0 
-167 13 0 
-167 77 0 
-13 -77 167 0 
-27 153 208 0 
27 -153 0 
27 -208 0 
-9 171 0 
-9 164 0 
-171 -164 9 0 
-175 122 0 
-175 68 0 
-122 -68 175 0 
-36 108 21 0 
36 -108 0 
36 -21 0 
-118 -183 0 
118 183 0 
-100 -110 0 
100 110 0 
-61 164 0 
-61 184 0 
-164 -184 61 0 
-167 -18 0 
167 18 0 
-151 118 0 
-151 183 0 
-118 -183 151 0 
-194 88 0 
-194 138 0 
-88 -138 194 0 
-102 15 22 0 
102 -15 0 
102 -22 0 
-174 170 201 0 
174 -170 0 
174 -201 0 
-29 -190 0 
29 190 0 
-121 -37 0 
121 37 0 
-127 81 0 
-127 130 0 
-81 -130 127 0 
-73 26 116 0 
73 -26 0 
73 -116 0 
-208 -99 0 
208 99 0 
-48 168 69 0 
48 -168 0 
48 -69 0 
-89 40 192 0 
89 -40 0 
89 -192 0 
-71 58 0 
-71 185 0 
-58 -185 71 0 
-45 1 0 
-45 164 0 
-1 -164 45 0 
-32 52 62 0 
32 -52 0 
32 -62 0 
-92 119 164 0 
92 -119 0 
92 -164 0 
-141 212 0 
-141 8 0 
-212 -8 141 0 
-131 93 0 
-131 162 0 
-93 -162 131 0 
-200 18 95 0 
200 -18 0 
200 -95 0 
-24 -64 0 
24 64 0 
-100 2 0 
-100 164 0 
-2 -164 100 0 
-86 3 0 
-86 208 0 
-3 -208 86 0 
-74 127 175 0 
74 -127 0 
74 -175 0 
-136 137 208 0 
136 -137 0 
136 -208 0 
-139 92 0 
-139 32 0 
-92 -32 139 0 
-182 57 153 0 
182 -57 0 
182 -153 0 
-53 96 202 0 
53 -96 0 
53 -202 0 
-46 -155 0 
46 155 0 
-189 46 104 0 
189 -46 0 
189 -104 0 
-205 101 82 0 
205 -101 0 
205 -82 0 
-104 28 0 
-104 176 0 
-28 -176 104 0 
-80 -146 0 
80 146 0 
-38 71 86 0 
38 -71 0 
38 -86 0 
-7 45 208 0 
7 -45 0 
7 -208 0 
-90 208 0 
-90 48 0 
-208 -48 90 0 
-29 3 0 
-29 164 0 
-3 -164 29 0 
-20 17 0 
-20 208 0 
-17 -208 20 0 
-55 27 0 
-55 141 0 
-27 -141 55 0 
-15 189 0 
-15 204 0 
-189 -204 15 0 
-69 149 83 0 
69 -149 0 
69 -83 0 
-93 127 29 0 
93 -127 0 
93 -29 0 
-65 131 175 0 
65 -131 0 
65 -175 0 
-78 139 19 0 
78 -139 0 
78 -19 0 
-67 114 0 
-67 74 0 
-114 -74 67 0 
-75 144 98 0 
75 -144 0 
75 -98 0 
-84 -101 0 
84 101 0 
-210 24 100 0 
210 -24 0 
210 -100 0 
-208 -120 0 
208 120 0 
-31 -87 0 
31 87 0 
-185 132 197 0 
185 -132 0 
185 -197 0 
-129 31 208 0 
129 -31 0 
129 -208 0 
-55 -193 0 
55 193 0 
-179 64 110 0 
179 -64 0 
179 -110 0 
-15 -187 0 
15 187 0 
-138 34 126 0 
138 -34 0 
138 -126 0 
-35 15 22 0 
35 -15 0 
35 -22 0 
-46 210 0 
-46 179 0 
-210 -179 46 0 
-206 54 142 0 
206 -54 0 
206 -142 0 
-63 134 59 0 
63 -134 0 
63 -59 0 
-163 -147 0 
163 147 0 
-209 24 104 0 
209 -24 0 
209 -104 0 
-208 -107 0 
208 107 0 
-208 -160 0 
208 160 0 
-97 94 37 0 
97 -94 0 
97 -37 0 
-112 159 99 0 
112 -159 0 
112 -99 0 
-42 -171 0 
42 171 0 
-59 -109 0 
59 109 0 
-19 -201 0 
19 201 0 
-199 29 175 0 
199 -29 0 
199 -175 0 
-21 203 0 
-21 177 0 
-203 -177 21 0 
-166 -144 0 
166 144 0 
-25 24 100 0 
25 -24 0 
25 -100 0 
-121 2 0 
-121 164 0 
-2 -164 121 0 
-208 -98 0 
208 98 0 
-72 78 0 
-72 174 0 
-78 -174 72 0 
-77 207 150 0 
77 -207 0 
77 -150 0 
-104 -47 0 
104 47 0 
-43 208 0 
-43 208 0 
-208 -208 43 0 
-172 9 66 0 
172 -9 0 
172 -66 0 
-186 194 55 0 
186 -194 0 
186 -55 0 
-122 22 59 0 
122 -22 0 
122 -59 0 
-83 148 0 
-83 19 0 
-148 -19 83 0 
-30 146 156 0 
30 -146 0 
30 -156 0 
-68 35 0 
-68 135 0 
-35 -135 68 0 
-134 102 0 
-134 211 0 
-102 -211 134 0 
-12 51 160 0 
12 -51 0 
12 -160 0 
-81 100 104 0 
81 -100 0 
81 -104 0 
-108 1 0 
-108 208 0 
-1 -208 108 0 
-58 91 21 0 
58 -91 0 
58 -21 0 
-151 -164 0 
151 164 0 
-103 16 120 0 
103 -16 0 
103 -120 0 
-124 123 165 0 
124 -123 0 
124 -165 0 
-82 61 172 0 
82 -61 0 
82 -172 0 
-157 17 0 
-157 48 0 
-17 -48 157 0 
-57 136 0 
-57 12 0 
-136 -12 57 0 
-208 -165 0 
208 165 0 
-196 208 0 
-196 178 0 
-208 -178 196 0 
-198 166 208 0 
198 -166 0 
198 -208 0 
-57 -96 0 
57 96 0 
-42 199 0 
-42 67 0 
-199 -67 42 0 
-194 -145 0 
194 145 0 
-143 182 0 
-143 53 0 
-182 -53 143 0 
-119 63 0 
-119 140 0 
-63 -140 119 0 
-59 158 0 
-59 39 0 
-158 -39 59 0 
-176 85 0 
-176 36 0 
-85 -36 176 0 
-188 191 0 
-188 103 0 
-191 -103 188 0 
-85 108 121 0 
85 -108 0 
85 -121 0 
-153 -202 0 
153 202 0 
